Route #1: 20 2 43 21 35 41 32 28 16 12
Route #2: 44 27 15 5 39 31 23 33 6
Route #3: 37 40 3 38 34 17 8 4 11 45 13 19
Route #4: 10 30 22 42 18
Route #5: 1 24 7 46 14
Route #6: 9 25 36 26 29
Route #7: 
cost 1347.435300921964
